50 10977

278
9
111
213
495
204
117
58
381
215
460
452
495
319
256
486
156
349
282
293
489
139
22
259
464
226
499
198
143
262
104
460
125
228
270
169
500
232
30
339
346
248
123
71
389
124
440
307
408
479
